50
100
100
90
89
89
89
87
84
81
80
77
77
77
74
71
71
71
67
66
65
63
62
61
60
59
59
57
56
56
54
54
51
51
49
48
48
47
47
46
40
39
37
36
36
35
34
34
33
32
31
30
